
Gurobi 8.1.0 (win64, Python) logging started 04/24/19 15:25:38

Academic license - for non-commercial use only
Read LP format model from file OR604 Model File v2.lp
Reading time = 0.54 seconds
: 25888 rows, 19166 columns, 1028139 nonzeros

Gurobi 8.1.0 (win64, Python) logging started 04/24/19 15:26:08

Academic license - for non-commercial use only
Read LP format model from file OR604 Model File v2.lp
Reading time = 0.56 seconds
: 25888 rows, 19166 columns, 1028139 nonzeros

Gurobi 8.1.0 (win64, Python) logging started 04/24/19 15:26:32

Academic license - for non-commercial use only
Read LP format model from file OR604 Model File v2.lp
Reading time = 0.54 seconds
: 25888 rows, 19166 columns, 1028139 nonzeros

Gurobi 8.1.0 (win64, Python) logging started 04/24/19 15:27:00

Academic license - for non-commercial use only
Read LP format model from file OR604 Model File v2.lp
Reading time = 0.57 seconds
: 25888 rows, 19166 columns, 1028139 nonzeros

Gurobi 8.1.0 (win64, Python) logging started 04/24/19 15:27:54

Academic license - for non-commercial use only
Read LP format model from file OR604 Model File v2.lp
Reading time = 0.59 seconds
: 25888 rows, 19166 columns, 1028139 nonzeros

Gurobi 8.1.0 (win64, Python) logging started 04/24/19 15:28:22

Academic license - for non-commercial use only
Read LP format model from file OR604 Model File v2.lp
Reading time = 0.54 seconds
: 25888 rows, 19166 columns, 1028139 nonzeros

Gurobi 8.1.0 (win64, Python) logging started 04/24/19 15:28:45

Academic license - for non-commercial use only
Read LP format model from file OR604 Model File v2.lp
Reading time = 0.54 seconds
: 25888 rows, 19166 columns, 1028139 nonzeros

Gurobi 8.1.0 (win64, Python) logging started 04/24/19 15:29:30

Academic license - for non-commercial use only
Read LP format model from file OR604 Model File v2.lp
Reading time = 0.53 seconds
: 25888 rows, 19166 columns, 1028139 nonzeros

Gurobi 8.1.0 (win64, Python) logging started 04/24/19 15:29:40

Academic license - for non-commercial use only
Read LP format model from file OR604 Model File v2.lp
Reading time = 0.55 seconds
: 25888 rows, 19166 columns, 1028139 nonzeros

Gurobi 8.1.0 (win64, Python) logging started 04/24/19 15:30:27

Academic license - for non-commercial use only
Read LP format model from file OR604 Model File v2.lp
Reading time = 0.56 seconds
: 25888 rows, 19166 columns, 1028139 nonzeros

Gurobi 8.1.0 (win64, Python) logging started 04/24/19 15:30:41

Academic license - for non-commercial use only
Read LP format model from file OR604 Model File v2.lp
Reading time = 0.69 seconds
: 25888 rows, 19166 columns, 1028139 nonzeros

Gurobi 8.1.0 (win64, Python) logging started 04/24/19 15:32:42

Academic license - for non-commercial use only
Read LP format model from file OR604 Model File v2.lp
Reading time = 0.53 seconds
: 25888 rows, 19166 columns, 1028139 nonzeros

Gurobi 8.1.0 (win64, Python) logging started 04/24/19 15:33:13

Academic license - for non-commercial use only
Read LP format model from file OR604 Model File v2.lp
Reading time = 0.55 seconds
: 25888 rows, 19166 columns, 1028139 nonzeros

Gurobi 8.1.0 (win64, Python) logging started 04/24/19 15:34:37

Academic license - for non-commercial use only
Read LP format model from file OR604 Model File v2.lp
Reading time = 0.55 seconds
: 25888 rows, 19166 columns, 1028139 nonzeros

Gurobi 8.1.0 (win64, Python) logging started 04/24/19 15:35:49

Academic license - for non-commercial use only
Read LP format model from file OR604 Model File v2.lp
Reading time = 0.56 seconds
: 25888 rows, 19166 columns, 1028139 nonzeros

Gurobi 8.1.0 (win64, Python) logging started 04/24/19 15:37:12

Academic license - for non-commercial use only
Read LP format model from file OR604 Model File v2.lp
Reading time = 0.56 seconds
: 25888 rows, 19166 columns, 1028139 nonzeros

Gurobi 8.1.0 (win64, Python) logging started 04/24/19 15:37:43

Academic license - for non-commercial use only
Read LP format model from file OR604 Model File v2.lp
Reading time = 0.54 seconds
: 25888 rows, 19166 columns, 1028139 nonzeros

Gurobi 8.1.0 (win64, Python) logging started 04/24/19 15:38:40

Academic license - for non-commercial use only
Read LP format model from file OR604 Model File v2.lp
Reading time = 0.57 seconds
: 25888 rows, 19166 columns, 1028139 nonzeros

Gurobi 8.1.0 (win64, Python) logging started 04/24/19 15:39:41

Academic license - for non-commercial use only
Read LP format model from file OR604 Model File v2.lp
Reading time = 0.54 seconds
: 25888 rows, 19166 columns, 1028139 nonzeros

Gurobi 8.1.0 (win64, Python) logging started 04/24/19 15:40:22

Academic license - for non-commercial use only
Read LP format model from file OR604 Model File v2.lp
Reading time = 0.57 seconds
: 25888 rows, 19166 columns, 1028139 nonzeros

Gurobi 8.1.0 (win64, Python) logging started 04/24/19 15:40:41

Academic license - for non-commercial use only
Read LP format model from file OR604 Model File v2.lp
Reading time = 0.59 seconds
: 25888 rows, 19166 columns, 1028139 nonzeros

Gurobi 8.1.0 (win64, Python) logging started 04/24/19 16:16:47

Academic license - for non-commercial use only
Read LP format model from file OR604 Model File v2.lp
Reading time = 0.58 seconds
: 25888 rows, 19166 columns, 1028139 nonzeros

Gurobi 8.1.0 (win64, Python) logging started 04/24/19 16:19:54

Academic license - for non-commercial use only
Read LP format model from file OR604 Model File v2.lp
Reading time = 0.59 seconds
: 25888 rows, 19166 columns, 1028139 nonzeros

Gurobi 8.1.0 (win64, Python) logging started 04/24/19 16:24:10

Academic license - for non-commercial use only
Read LP format model from file OR604 Model File v2.lp
Reading time = 0.54 seconds
: 25888 rows, 19166 columns, 1028139 nonzeros

Gurobi 8.1.0 (win64, Python) logging started 04/24/19 16:24:14


Gurobi 8.1.0 (win64, Python) logging started 04/24/19 16:24:14

Academic license - for non-commercial use only
Academic license - for non-commercial use only

Gurobi 8.1.0 (win64, Python) logging started 04/24/19 16:24:14

Academic license - for non-commercial use only

Gurobi 8.1.0 (win64, Python) logging started 04/24/19 16:24:14

Academic license - for non-commercial use only

Gurobi 8.1.0 (win64, Python) logging started 04/24/19 16:25:22

Academic license - for non-commercial use only
Read LP format model from file OR604 Model File v2.lp
Reading time = 0.54 seconds
: 25888 rows, 19166 columns, 1028139 nonzeros

Gurobi 8.1.0 (win64, Python) logging started 04/24/19 16:25:26

Academic license - for non-commercial use only

Gurobi 8.1.0 (win64, Python) logging started 04/24/19 16:25:26

Academic license - for non-commercial use only

Gurobi 8.1.0 (win64, Python) logging started 04/24/19 16:25:26

Academic license - for non-commercial use only

Gurobi 8.1.0 (win64, Python) logging started 04/24/19 16:25:26

Academic license - for non-commercial use only
Read LP format model from file OR604 Model File v2.lp
Reading time = 0.73 seconds
: 25888 rows, 19166 columns, 1028139 nonzeros
Changed value of parameter logtoconsole to 0
   Prev: 1  Min: 0  Max: 1  Default: 1
Changed value of parameter timelimit to 10.0
   Prev: 1e+100  Min: 0.0  Max: 1e+100  Default: 1e+100
No parameters matching 'threadlimit' found
Read LP format model from file OR604 Model File v2.lp
Reading time = 0.73 seconds
: 25888 rows, 19166 columns, 1028139 nonzeros
Changed value of parameter logtoconsole to 0
   Prev: 1  Min: 0  Max: 1  Default: 1
Changed value of parameter timelimit to 10.0
   Prev: 1e+100  Min: 0.0  Max: 1e+100  Default: 1e+100
No parameters matching 'threadlimit' found
Read LP format model from file OR604 Model File v2.lp
Reading time = 0.78 seconds
: 25888 rows, 19166 columns, 1028139 nonzeros
Changed value of parameter logtoconsole to 0
   Prev: 1  Min: 0  Max: 1  Default: 1
Changed value of parameter timelimit to 10.0
   Prev: 1e+100  Min: 0.0  Max: 1e+100  Default: 1e+100
No parameters matching 'threadlimit' found
Read LP format model from file OR604 Model File v2.lp
Reading time = 0.78 seconds
: 25888 rows, 19166 columns, 1028139 nonzeros
Changed value of parameter logtoconsole to 0
   Prev: 1  Min: 0  Max: 1  Default: 1
Changed value of parameter timelimit to 10.0
   Prev: 1e+100  Min: 0.0  Max: 1e+100  Default: 1e+100
No parameters matching 'threadlimit' found

Gurobi 8.1.0 (win64, Python) logging started 04/24/19 16:26:05

Academic license - for non-commercial use only
Read LP format model from file OR604 Model File v2.lp
Reading time = 0.55 seconds
: 25888 rows, 19166 columns, 1028139 nonzeros

Gurobi 8.1.0 (win64, Python) logging started 04/24/19 16:26:09


Gurobi 8.1.0 (win64, Python) logging started 04/24/19 16:26:09

Academic license - for non-commercial use only
Academic license - for non-commercial use only

Gurobi 8.1.0 (win64, Python) logging started 04/24/19 16:26:09

Academic license - for non-commercial use only

Gurobi 8.1.0 (win64, Python) logging started 04/24/19 16:26:09

Academic license - for non-commercial use only
Read LP format model from file OR604 Model File v2.lp
Reading time = 0.80 seconds
: 25888 rows, 19166 columns, 1028139 nonzeros
Changed value of parameter logtoconsole to 0
   Prev: 1  Min: 0  Max: 1  Default: 1
Changed value of parameter timelimit to 10.0
   Prev: 1e+100  Min: 0.0  Max: 1e+100  Default: 1e+100
No parameters matching 'threadlimit' found
Read LP format model from file OR604 Model File v2.lp
Reading time = 0.82 seconds
: 25888 rows, 19166 columns, 1028139 nonzeros
Changed value of parameter logtoconsole to 0
   Prev: 1  Min: 0  Max: 1  Default: 1
Changed value of parameter timelimit to 10.0
   Prev: 1e+100  Min: 0.0  Max: 1e+100  Default: 1e+100
No parameters matching 'threadlimit' found
Read LP format model from file OR604 Model File v2.lp
Reading time = 0.82 seconds
: 25888 rows, 19166 columns, 1028139 nonzeros
Changed value of parameter logtoconsole to 0
   Prev: 1  Min: 0  Max: 1  Default: 1
Changed value of parameter timelimit to 10.0
   Prev: 1e+100  Min: 0.0  Max: 1e+100  Default: 1e+100
No parameters matching 'threadlimit' found
Read LP format model from file OR604 Model File v2.lp
Reading time = 0.82 seconds
: 25888 rows, 19166 columns, 1028139 nonzeros
Changed value of parameter logtoconsole to 0
   Prev: 1  Min: 0  Max: 1  Default: 1
Changed value of parameter timelimit to 10.0
   Prev: 1e+100  Min: 0.0  Max: 1e+100  Default: 1e+100
No parameters matching 'threadlimit' found

Gurobi 8.1.0 (win64, Python) logging started 04/24/19 16:27:31

Academic license - for non-commercial use only
Read LP format model from file OR604 Model File v2.lp
Reading time = 0.61 seconds
: 25888 rows, 19166 columns, 1028139 nonzeros

Gurobi 8.1.0 (win64, Python) logging started 04/24/19 16:27:35


Gurobi 8.1.0 (win64, Python) logging started 04/24/19 16:27:35

Academic license - for non-commercial use only
Academic license - for non-commercial use only

Gurobi 8.1.0 (win64, Python) logging started 04/24/19 16:27:35

Academic license - for non-commercial use only

Gurobi 8.1.0 (win64, Python) logging started 04/24/19 16:27:35

Academic license - for non-commercial use only
Read LP format model from file OR604 Model File v2.lp
Reading time = 0.70 seconds
: 25888 rows, 19166 columns, 1028139 nonzeros
Read LP format model from file OR604 Model File v2.lp
Reading time = 0.74 seconds
: 25888 rows, 19166 columns, 1028139 nonzeros
Read LP format model from file OR604 Model File v2.lp
Reading time = 0.77 seconds
: 25888 rows, 19166 columns, 1028139 nonzeros
Read LP format model from file OR604 Model File v2.lp
Reading time = 0.77 seconds
: 25888 rows, 19166 columns, 1028139 nonzeros

Gurobi 8.1.0 (win64, Python) logging started 04/24/19 16:29:03

Academic license - for non-commercial use only
Read LP format model from file OR604 Model File v2.lp
Reading time = 0.60 seconds
: 25888 rows, 19166 columns, 1028139 nonzeros

Gurobi 8.1.0 (win64, Python) logging started 04/24/19 16:29:07

Academic license - for non-commercial use only

Gurobi 8.1.0 (win64, Python) logging started 04/24/19 16:29:07


Gurobi 8.1.0 (win64, Python) logging started 04/24/19 16:29:07

Academic license - for non-commercial use only
Academic license - for non-commercial use only

Gurobi 8.1.0 (win64, Python) logging started 04/24/19 16:29:07

Academic license - for non-commercial use only
Read LP format model from file OR604 Model File v2.lp
Reading time = 0.70 seconds
: 25888 rows, 19166 columns, 1028139 nonzeros
Read LP format model from file OR604 Model File v2.lp
Reading time = 0.71 seconds
: 25888 rows, 19166 columns, 1028139 nonzeros
Read LP format model from file OR604 Model File v2.lp
Reading time = 0.73 seconds
: 25888 rows, 19166 columns, 1028139 nonzeros
Read LP format model from file OR604 Model File v2.lp
Reading time = 0.76 seconds
: 25888 rows, 19166 columns, 1028139 nonzeros

Gurobi 8.1.0 (win64, Python) logging started 04/24/19 16:29:54

Academic license - for non-commercial use only
Read LP format model from file OR604 Model File v2.lp
Reading time = 0.56 seconds
: 25888 rows, 19166 columns, 1028139 nonzeros

Gurobi 8.1.0 (win64, Python) logging started 04/24/19 16:29:58

Academic license - for non-commercial use only

Gurobi 8.1.0 (win64, Python) logging started 04/24/19 16:29:58

Academic license - for non-commercial use only

Gurobi 8.1.0 (win64, Python) logging started 04/24/19 16:29:58

Academic license - for non-commercial use only

Gurobi 8.1.0 (win64, Python) logging started 04/24/19 16:29:58

Academic license - for non-commercial use only
Read LP format model from file OR604 Model File v2.lp
Reading time = 0.79 seconds
: 25888 rows, 19166 columns, 1028139 nonzeros
Read LP format model from file OR604 Model File v2.lp
Reading time = 0.81 seconds
: 25888 rows, 19166 columns, 1028139 nonzeros
Read LP format model from file OR604 Model File v2.lp
Reading time = 0.80 seconds
: 25888 rows, 19166 columns, 1028139 nonzeros
Read LP format model from file OR604 Model File v2.lp
Reading time = 0.80 seconds
: 25888 rows, 19166 columns, 1028139 nonzeros

Gurobi 8.1.0 (win64, Python) logging started 04/24/19 16:33:20

Academic license - for non-commercial use only
Read LP format model from file OR604 Model File v2.lp
Reading time = 0.57 seconds
: 25888 rows, 19166 columns, 1028139 nonzeros

Gurobi 8.1.0 (win64, Python) logging started 04/24/19 16:33:45

Academic license - for non-commercial use only
Read LP format model from file OR604 Model File v2.lp
Reading time = 0.54 seconds
: 25888 rows, 19166 columns, 1028139 nonzeros

Gurobi 8.1.0 (win64, Python) logging started 04/24/19 16:34:03

Academic license - for non-commercial use only
Read LP format model from file OR604 Model File v2.lp
Reading time = 0.56 seconds
: 25888 rows, 19166 columns, 1028139 nonzeros

Gurobi 8.1.0 (win64, Python) logging started 04/24/19 16:34:59

Academic license - for non-commercial use only
Read LP format model from file OR604 Model File v2.lp
Reading time = 0.60 seconds
: 25888 rows, 19166 columns, 1028139 nonzeros

Gurobi 8.1.0 (win64, Python) logging started 04/24/19 16:35:43

Academic license - for non-commercial use only
Read LP format model from file OR604 Model File v2.lp
Reading time = 0.57 seconds
: 25888 rows, 19166 columns, 1028139 nonzeros

Gurobi 8.1.0 (win64, Python) logging started 04/24/19 16:35:48


Gurobi 8.1.0 (win64, Python) logging started 04/24/19 16:35:48

Academic license - for non-commercial use only
Academic license - for non-commercial use only

Gurobi 8.1.0 (win64, Python) logging started 04/24/19 16:35:48

Academic license - for non-commercial use only

Gurobi 8.1.0 (win64, Python) logging started 04/24/19 16:35:48

Academic license - for non-commercial use only
Read LP format model from file OR604 Model File v2.lp
Reading time = 0.76 seconds
: 25888 rows, 19166 columns, 1028139 nonzeros
Read LP format model from file OR604 Model File v2.lp
Reading time = 0.81 seconds
: 25888 rows, 19166 columns, 1028139 nonzeros
Read LP format model from file OR604 Model File v2.lp
Reading time = 0.83 seconds
: 25888 rows, 19166 columns, 1028139 nonzeros
Read LP format model from file OR604 Model File v2.lp
Reading time = 0.82 seconds
: 25888 rows, 19166 columns, 1028139 nonzeros

Gurobi 8.1.0 (win64, Python) logging started 04/24/19 16:36:55

Academic license - for non-commercial use only
Read LP format model from file OR604 Model File v2.lp
Reading time = 0.57 seconds
: 25888 rows, 19166 columns, 1028139 nonzeros

Gurobi 8.1.0 (win64, Python) logging started 04/24/19 16:36:59


Gurobi 8.1.0 (win64, Python) logging started 04/24/19 16:36:59

Academic license - for non-commercial use only
Academic license - for non-commercial use only

Gurobi 8.1.0 (win64, Python) logging started 04/24/19 16:36:59

Academic license - for non-commercial use only

Gurobi 8.1.0 (win64, Python) logging started 04/24/19 16:36:59

Academic license - for non-commercial use only
Read LP format model from file OR604 Model File v2.lp
Reading time = 0.65 seconds
: 25888 rows, 19166 columns, 1028139 nonzeros
Read LP format model from file OR604 Model File v2.lp
Reading time = 0.71 seconds
: 25888 rows, 19166 columns, 1028139 nonzeros
Read LP format model from file OR604 Model File v2.lp
Reading time = 0.74 seconds
: 25888 rows, 19166 columns, 1028139 nonzeros
Read LP format model from file OR604 Model File v2.lp
Reading time = 0.75 seconds
: 25888 rows, 19166 columns, 1028139 nonzeros

Gurobi 8.1.0 (win64, Python) logging started 04/24/19 16:39:08

Academic license - for non-commercial use only
Read LP format model from file OR604 Model File v2.lp
Reading time = 0.55 seconds
: 25888 rows, 19166 columns, 1028139 nonzeros

Gurobi 8.1.0 (win64, Python) logging started 04/24/19 16:39:12


Gurobi 8.1.0 (win64, Python) logging started 04/24/19 16:39:12


Gurobi 8.1.0 (win64, Python) logging started 04/24/19 16:39:12

Academic license - for non-commercial use only
Academic license - for non-commercial use only
Academic license - for non-commercial use only

Gurobi 8.1.0 (win64, Python) logging started 04/24/19 16:39:12

Academic license - for non-commercial use only
Read LP format model from file OR604 Model File v2.lp
Reading time = 0.68 seconds
: 25888 rows, 19166 columns, 1028139 nonzeros
Read LP format model from file OR604 Model File v2.lp
Reading time = 0.72 seconds
: 25888 rows, 19166 columns, 1028139 nonzeros
Read LP format model from file OR604 Model File v2.lp
Reading time = 0.73 seconds
: 25888 rows, 19166 columns, 1028139 nonzeros
Read LP format model from file OR604 Model File v2.lp
Reading time = 0.74 seconds
: 25888 rows, 19166 columns, 1028139 nonzeros

Gurobi 8.1.0 (win64, Python) logging started 04/24/19 16:41:12

Academic license - for non-commercial use only
Read LP format model from file OR604 Model File v2.lp
Reading time = 0.59 seconds
: 25888 rows, 19166 columns, 1028139 nonzeros

Gurobi 8.1.0 (win64, Python) logging started 04/24/19 16:41:16


Gurobi 8.1.0 (win64, Python) logging started 04/24/19 16:41:16

Academic license - for non-commercial use only
Academic license - for non-commercial use only

Gurobi 8.1.0 (win64, Python) logging started 04/24/19 16:41:16

Academic license - for non-commercial use only

Gurobi 8.1.0 (win64, Python) logging started 04/24/19 16:41:16

Academic license - for non-commercial use only
Read LP format model from file OR604 Model File v2.lp
Reading time = 0.69 seconds
: 25888 rows, 19166 columns, 1028139 nonzeros
Read LP format model from file OR604 Model File v2.lp
Reading time = 0.70 seconds
: 25888 rows, 19166 columns, 1028139 nonzeros
Read LP format model from file OR604 Model File v2.lp
Read LP format model from file OR604 Model File v2.lp
Reading time = 0.72 seconds
Reading time = 0.73 seconds
: 25888 rows, 19166 columns, 1028139 nonzeros
: 25888 rows, 19166 columns, 1028139 nonzeros

Gurobi 8.1.0 (win64, Python) logging started 04/24/19 16:42:13

Academic license - for non-commercial use only
Read LP format model from file OR604 Model File v2.lp
Reading time = 0.56 seconds
: 25888 rows, 19166 columns, 1028139 nonzeros

Gurobi 8.1.0 (win64, Python) logging started 04/24/19 16:42:16

Academic license - for non-commercial use only

Gurobi 8.1.0 (win64, Python) logging started 04/24/19 16:42:16

Academic license - for non-commercial use only

Gurobi 8.1.0 (win64, Python) logging started 04/24/19 16:42:16


Gurobi 8.1.0 (win64, Python) logging started 04/24/19 16:42:16

Academic license - for non-commercial use only
Academic license - for non-commercial use only
Read LP format model from file OR604 Model File v2.lp
Reading time = 0.70 seconds
: 25888 rows, 19166 columns, 1028139 nonzeros
Read LP format model from file OR604 Model File v2.lp
Reading time = 0.71 seconds
: 25888 rows, 19166 columns, 1028139 nonzeros
Read LP format model from file OR604 Model File v2.lp
Reading time = 0.76 seconds
: 25888 rows, 19166 columns, 1028139 nonzeros
Read LP format model from file OR604 Model File v2.lp
Reading time = 0.77 seconds
: 25888 rows, 19166 columns, 1028139 nonzeros

Gurobi 8.1.0 (win64, Python) logging started 04/24/19 16:43:16

Academic license - for non-commercial use only
Read LP format model from file OR604 Model File v2.lp
Reading time = 0.58 seconds
: 25888 rows, 19166 columns, 1028139 nonzeros

Gurobi 8.1.0 (win64, Python) logging started 04/24/19 16:43:20


Gurobi 8.1.0 (win64, Python) logging started 04/24/19 16:43:20

Academic license - for non-commercial use only
Academic license - for non-commercial use only

Gurobi 8.1.0 (win64, Python) logging started 04/24/19 16:43:20


Gurobi 8.1.0 (win64, Python) logging started 04/24/19 16:43:20

Academic license - for non-commercial use only
Academic license - for non-commercial use only
Read LP format model from file OR604 Model File v2.lp
Reading time = 0.71 seconds
: 25888 rows, 19166 columns, 1028139 nonzeros
Read LP format model from file OR604 Model File v2.lp
Reading time = 0.71 seconds
: 25888 rows, 19166 columns, 1028139 nonzeros
Read LP format model from file OR604 Model File v2.lp
Reading time = 0.73 seconds
: 25888 rows, 19166 columns, 1028139 nonzeros
Read LP format model from file OR604 Model File v2.lp
Reading time = 0.76 seconds
: 25888 rows, 19166 columns, 1028139 nonzeros

Gurobi 8.1.0 (win64, Python) logging started 04/24/19 16:45:55

Academic license - for non-commercial use only
Read LP format model from file OR604 Model File v2.lp
Reading time = 0.62 seconds
: 25888 rows, 19166 columns, 1028139 nonzeros

Gurobi 8.1.0 (win64, Python) logging started 04/24/19 16:45:59

Academic license - for non-commercial use only

Gurobi 8.1.0 (win64, Python) logging started 04/24/19 16:45:59


Gurobi 8.1.0 (win64, Python) logging started 04/24/19 16:45:59

Academic license - for non-commercial use only
Academic license - for non-commercial use only

Gurobi 8.1.0 (win64, Python) logging started 04/24/19 16:45:59

Academic license - for non-commercial use only
Read LP format model from file OR604 Model File v2.lp
Reading time = 0.70 seconds
: 25888 rows, 19166 columns, 1028139 nonzeros
Read LP format model from file OR604 Model File v2.lp
Reading time = 0.74 seconds
: 25888 rows, 19166 columns, 1028139 nonzeros
Read LP format model from file OR604 Model File v2.lp
Reading time = 0.77 seconds
: 25888 rows, 19166 columns, 1028139 nonzeros
Read LP format model from file OR604 Model File v2.lp
Reading time = 0.77 seconds
: 25888 rows, 19166 columns, 1028139 nonzeros

Gurobi 8.1.0 (win64, Python) logging started 04/24/19 16:47:31

Academic license - for non-commercial use only
Read LP format model from file OR604 Model File v2.lp
Reading time = 0.56 seconds
: 25888 rows, 19166 columns, 1028139 nonzeros

Gurobi 8.1.0 (win64, Python) logging started 04/24/19 16:47:34

Academic license - for non-commercial use only

Gurobi 8.1.0 (win64, Python) logging started 04/24/19 16:47:34

Academic license - for non-commercial use only

Gurobi 8.1.0 (win64, Python) logging started 04/24/19 16:47:34

Academic license - for non-commercial use only

Gurobi 8.1.0 (win64, Python) logging started 04/24/19 16:47:34

Academic license - for non-commercial use only
Read LP format model from file OR604 Model File v2.lp
Reading time = 0.64 seconds
: 25888 rows, 19166 columns, 1028139 nonzeros
Read LP format model from file OR604 Model File v2.lp
Reading time = 0.70 seconds
: 25888 rows, 19166 columns, 1028139 nonzeros
Read LP format model from file OR604 Model File v2.lp
Reading time = 0.72 seconds
: 25888 rows, 19166 columns, 1028139 nonzeros
Read LP format model from file OR604 Model File v2.lp
Reading time = 0.73 seconds
: 25888 rows, 19166 columns, 1028139 nonzeros

Gurobi 8.1.0 (win64, Python) logging started 04/24/19 16:49:11

Academic license - for non-commercial use only
Read LP format model from file OR604 Model File v2.lp
Reading time = 0.59 seconds
: 25888 rows, 19166 columns, 1028139 nonzeros

Gurobi 8.1.0 (win64, Python) logging started 04/24/19 16:49:36

Academic license - for non-commercial use only
Read LP format model from file OR604 Model File v2.lp
Reading time = 0.56 seconds
: 25888 rows, 19166 columns, 1028139 nonzeros

Gurobi 8.1.0 (win64, Python) logging started 04/24/19 16:49:40

Academic license - for non-commercial use only

Gurobi 8.1.0 (win64, Python) logging started 04/24/19 16:49:40

Academic license - for non-commercial use only

Gurobi 8.1.0 (win64, Python) logging started 04/24/19 16:49:40

Academic license - for non-commercial use only

Gurobi 8.1.0 (win64, Python) logging started 04/24/19 16:49:40

Academic license - for non-commercial use only
Read LP format model from file OR604 Model File v2.lp
Reading time = 0.75 seconds
: 25888 rows, 19166 columns, 1028139 nonzeros
Read LP format model from file OR604 Model File v2.lp
Reading time = 0.78 seconds
: 25888 rows, 19166 columns, 1028139 nonzeros
Read LP format model from file OR604 Model File v2.lp
Reading time = 0.79 seconds
: 25888 rows, 19166 columns, 1028139 nonzeros
Read LP format model from file OR604 Model File v2.lp
Reading time = 0.82 seconds
: 25888 rows, 19166 columns, 1028139 nonzeros

Gurobi 8.1.0 (win64, Python) logging started 04/24/19 16:51:00

Academic license - for non-commercial use only
Read LP format model from file OR604 Model File v2.lp
Reading time = 0.55 seconds
: 25888 rows, 19166 columns, 1028139 nonzeros

Gurobi 8.1.0 (win64, Python) logging started 04/24/19 16:51:04


Gurobi 8.1.0 (win64, Python) logging started 04/24/19 16:51:04

Academic license - for non-commercial use only

Gurobi 8.1.0 (win64, Python) logging started 04/24/19 16:51:04

Academic license - for non-commercial use only
Academic license - for non-commercial use only

Gurobi 8.1.0 (win64, Python) logging started 04/24/19 16:51:04

Academic license - for non-commercial use only
Read LP format model from file OR604 Model File v2.lp
Reading time = 0.74 seconds
: 25888 rows, 19166 columns, 1028139 nonzeros
Read LP format model from file OR604 Model File v2.lp
Reading time = 0.71 seconds
: 25888 rows, 19166 columns, 1028139 nonzeros
Read LP format model from file OR604 Model File v2.lp
Reading time = 0.75 seconds
: 25888 rows, 19166 columns, 1028139 nonzeros
Read LP format model from file OR604 Model File v2.lp
Reading time = 0.77 seconds
: 25888 rows, 19166 columns, 1028139 nonzeros

Gurobi 8.1.0 (win64, Python) logging started 04/24/19 16:53:42

Academic license - for non-commercial use only
Read LP format model from file OR604 Model File v2.lp
Reading time = 0.52 seconds
: 25888 rows, 19166 columns, 1028139 nonzeros

Gurobi 8.1.0 (win64, Python) logging started 04/24/19 16:53:46

Academic license - for non-commercial use only

Gurobi 8.1.0 (win64, Python) logging started 04/24/19 16:53:46

Academic license - for non-commercial use only

Gurobi 8.1.0 (win64, Python) logging started 04/24/19 16:53:46

Academic license - for non-commercial use only

Gurobi 8.1.0 (win64, Python) logging started 04/24/19 16:53:46

Academic license - for non-commercial use only
Read LP format model from file OR604 Model File v2.lp
Reading time = 0.61 seconds
: 25888 rows, 19166 columns, 1028139 nonzeros
Read LP format model from file OR604 Model File v2.lp
Reading time = 0.59 seconds
: 25888 rows, 19166 columns, 1028139 nonzeros
Read LP format model from file OR604 Model File v2.lp
Reading time = 0.61 seconds
: 25888 rows, 19166 columns, 1028139 nonzeros
Read LP format model from file OR604 Model File v2.lp
Reading time = 0.64 seconds
: 25888 rows, 19166 columns, 1028139 nonzeros
